data;
param n:=50;
param w:=1 -96 2 -12 3 -262 4 171 5 131 6 168 7 -225 8 160 9 155 10 -20 11 -132 12 -35 13 145 14 218 15 155 16 63 17 209 18 -133 19 -43 20 147 21 -173 22 25 23 -171 24 30 25 194 26 -232 27 -95 28 -146 29 -153 30 -88 31 -143 32 -203 33 173 34 59 35 115 36 197 37 -3 38 40 39 -90 40 3 41 184 42 -56 43 -69 44 221 45 93 46 176 47 -140 48 -156 49 -119 50 -237;
